
Gurobi 6.5.2 (linux64) logging started Sun Sep 18 18:43:49 2016


Gurobi 6.5.2 (linux64) logging started Sun Sep 18 18:43:49 2016

Optimize a model with 201 rows, 1585 columns and 3467 nonzeros
Coefficient statistics:
  Matrix range    [1e+00, 2e+00]
  Objective range [1e+00, 1e+02]
  Bounds range    [1e+00, 1e+00]
  RHS range       [1e+00, 1e+00]
Presolve removed 57 rows and 8 columns
Presolve time: 0.01s
Presolved: 144 rows, 1577 columns, 3220 nonzeros
Variable types: 0 continuous, 1577 integer (1577 binary)

Root relaxation: objective 7.072500e+02, 130 iterations, 0.00 seconds

    Nodes    |    Current Node    |     Objective Bounds      |     Work
 Expl Unexpl |  Obj  Depth IntInf | Incumbent    BestBd   Gap | It/Node Time

     0     0  707.25000    0   49          -  707.25000      -     -    0s
H    0     0                    2256.0000000  707.25000  68.7%     -    0s
     0     0  782.96111    0   92 2256.00000  782.96111  65.3%     -    0s
     0     0  803.44444    0   58 2256.00000  803.44444  64.4%     -    0s
     0     0  803.84783    0   80 2256.00000  803.84783  64.4%     -    0s
     0     0  809.88750    0   81 2256.00000  809.88750  64.1%     -    0s
     0     0  809.92857    0   82 2256.00000  809.92857  64.1%     -    0s
     0     0  821.47833    0   90 2256.00000  821.47833  63.6%     -    0s
     0     0  821.47833    0   98 2256.00000  821.47833  63.6%     -    0s
     0     0  825.91270    0  105 2256.00000  825.91270  63.4%     -    0s
     0     0  825.91270    0   95 2256.00000  825.91270  63.4%     -    0s
     0     2  825.91270    0   95 2256.00000  825.91270  63.4%     -    0s
*  704   621             118    1153.0000000  828.50000  28.1%   6.4    0s
* 2064  1400             111    1150.0000000  855.00000  25.7%   8.5    4s
  2532  1594 1082.50000  106    8 1150.00000  855.05556  25.6%   8.3    5s
* 2958  1752             141    1138.0000000  855.39255  24.8%   8.2    6s
* 3391  1788             119    1081.0000000  855.68687  20.8%   7.9    6s
H 6356  3983                    1056.0000000  856.29167  18.9%   7.2    7s
* 6783  4197             105    1050.0000000  856.54717  18.4%   7.2    7s
* 7072  4071              80     997.0000000  856.56250  14.1%   7.2    7s
* 7786  3814              70     949.0000000  857.00000  9.69%   7.2    8s
  9220  4783     cutoff   90       949.00000  857.71982  9.62%   7.2   10s

Cutting planes:
  Gomory: 41
  Cover: 93
  Clique: 1
  MIR: 7
  Flow cover: 5
  Zero half: 14
  Lazy constraints: 952

Explored 9796 nodes (70040 simplex iterations) in 10.03 seconds
Thread count was 8 (of 8 available processors)

Time limit reached
Best objective 9.490000000000e+02, best bound 8.580000000000e+02, gap 9.5890%
